468,298
627,300
681,316
892,115
803,166
761,366
733,478
875,547
935,660
857,648
852,461
858,378
829,383
749,539
417,42
321,46
453,332
567,443
776,593
830,700
945,770
1095,341
1006,457
624,424
705,423
560,318
385,452
616,820
593,527
628,433
654,459
681,706
